Week_4/Blending_problem/blending.sol
# Solution for model basic_model
# Objective value = 1950
Feed_1 4500
Feed_2 2.0000000000000002e+03
Feed_3 0
Feed_4 1.4999999999999998e+03
